MoS2 monolayer
1.0
  3.16000000   0.00000000   0.00000000
 -1.58000000   2.73679000   0.00000000
  0.00000000   0.00000000  20.00000000
Mo S
1 2
Direct
  0.333333333  0.666666667  0.500000000
  0.666666667  0.333333333  0.423000000
  0.666666667  0.333333333  0.577000000
