LaP
6.07
0 0.5 0.5
0.5 0 0.5
0.5 0.5 0
La P
1 1
Direct
0 0 0
0.5 0.5 0.5
